Running symmetry.mzn with ins-1.dzn
8 8
4
3 3 5 0
3 5 5 3
5 3 0 5
5 5 0 0
----------
==========
%%%mzn-stat: initTime=0.000815
%%%mzn-stat: solveTime=0.000171
%%%mzn-stat: solutions=1
%%%mzn-stat: variables=18
%%%mzn-stat: propagators=15
%%%mzn-stat: propagations=54
%%%mzn-stat: nodes=5
%%%mzn-stat: failures=1
%%%mzn-stat: restarts=0
%%%mzn-stat: peakDepth=4
%%%mzn-stat-end
Finished in 108msec
Running symmetry.mzn with ins-2.dzn
9 9
5
3 3 3 0
3 4 6 0
3 5 6 4
3 6 3 3
3 9 0 0
----------
==========
%%%mzn-stat: initTime=0.00446
%%%mzn-stat: solveTime=0.002781
%%%mzn-stat: solutions=2
%%%mzn-stat: variables=22
%%%mzn-stat: propagators=16
%%%mzn-stat: propagations=121
%%%mzn-stat: nodes=12
%%%mzn-stat: failures=4
%%%mzn-stat: restarts=0
%%%mzn-stat: peakDepth=7
%%%mzn-stat-end
Finished in 131msec
Running symmetry.mzn with ins-3.dzn
10 10
6
3 3 4 0
3 4 7 0
3 6 7 4
3 7 4 3
4 4 0 6
4 6 0 0
----------
==========
%%%mzn-stat: initTime=0.000731
%%%mzn-stat: solveTime=0.00033
%%%mzn-stat: solutions=3
%%%mzn-stat: variables=26
%%%mzn-stat: propagators=19
%%%mzn-stat: propagations=502
%%%mzn-stat: nodes=42
%%%mzn-stat: failures=16
%%%mzn-stat: restarts=0
%%%mzn-stat: peakDepth=14
%%%mzn-stat-end
Finished in 116msec
Running symmetry.mzn with ins-4.dzn
11 11
7
3 3 0 8
3 4 0 4
3 5 8 6
3 6 8 0
5 3 3 4
5 4 3 7
8 4 0 0
----------
==========
%%%mzn-stat: initTime=0.000647
%%%mzn-stat: solveTime=0.000337
%%%mzn-stat: solutions=3
%%%mzn-stat: variables=30
%%%mzn-stat: propagators=21
%%%mzn-stat: propagations=549
%%%mzn-stat: nodes=43
%%%mzn-stat: failures=18
%%%mzn-stat: restarts=0
%%%mzn-stat: peakDepth=13
%%%mzn-stat-end
Finished in 119msec
Running symmetry.mzn with ins-5.dzn
12 12
8
3 3 3 0
3 4 6 0
3 5 9 7
3 6 3 3
3 7 9 0
3 8 6 4
3 9 0 0
6 3 0 9
----------
==========
%%%mzn-stat: initTime=0.000674
%%%mzn-stat: solveTime=0.001168
%%%mzn-stat: solutions=6
%%%mzn-stat: variables=34
%%%mzn-stat: propagators=23
%%%mzn-stat: propagations=2269
%%%mzn-stat: nodes=305
%%%mzn-stat: failures=136
%%%mzn-stat: restarts=0
%%%mzn-stat: peakDepth=23
%%%mzn-stat-end
Finished in 108msec
Running symmetry.mzn with ins-6.dzn
13 13
9
3 3 7 0
3 4 7 9
3 5 10 8
3 6 7 3
3 7 0 6
3 8 10 0
4 3 3 10
4 4 3 6
7 6 0 0
----------
==========
%%%mzn-stat: initTime=0.000688
%%%mzn-stat: solveTime=0.001018
%%%mzn-stat: solutions=4
%%%mzn-stat: variables=38
%%%mzn-stat: propagators=25
%%%mzn-stat: propagations=1632
%%%mzn-stat: nodes=182
%%%mzn-stat: failures=82
%%%mzn-stat: restarts=0
%%%mzn-stat: peakDepth=19
%%%mzn-stat-end
Finished in 121msec
Running symmetry.mzn with ins-7.dzn
14 14
9
3 3 5 0
3 4 0 10
3 5 11 9
3 6 8 8
3 7 5 3
3 8 8 0
3 9 11 0
5 4 3 10
5 10 0 0
----------
==========
%%%mzn-stat: initTime=0.000688
%%%mzn-stat: solveTime=0.002134
%%%mzn-stat: solutions=6
%%%mzn-stat: variables=38
%%%mzn-stat: propagators=25
%%%mzn-stat: propagations=4149
%%%mzn-stat: nodes=507
%%%mzn-stat: failures=239
%%%mzn-stat: restarts=0
%%%mzn-stat: peakDepth=20
%%%mzn-stat-end
Finished in 111msec
Running symmetry.mzn with ins-8.dzn
15 15
10
3 3 12 0
3 4 6 0
3 5 3 0
3 6 9 9
3 7 3 5
3 8 6 4
3 9 9 0
3 12 12 3
3 15 0 0
6 3 3 12
----------
==========
%%%mzn-stat: initTime=0.000742
%%%mzn-stat: solveTime=0.003191
%%%mzn-stat: solutions=6
%%%mzn-stat: variables=42
%%%mzn-stat: propagators=26
%%%mzn-stat: propagations=4728
%%%mzn-stat: nodes=746
%%%mzn-stat: failures=358
%%%mzn-stat: restarts=0
%%%mzn-stat: peakDepth=35
%%%mzn-stat-end
Finished in 122msec
Running symmetry.mzn with ins-9.dzn
16 16
10
3 3 7 0
3 4 10 0
3 5 7 11
3 6 13 10
3 7 0 9
3 8 7 3
3 10 13 0
3 12 10 4
4 7 3 9
7 9 0 0
----------
==========
%%%mzn-stat: initTime=0.000844
%%%mzn-stat: solveTime=0.008144
%%%mzn-stat: solutions=6
%%%mzn-stat: variables=42
%%%mzn-stat: propagators=27
%%%mzn-stat: propagations=16173
%%%mzn-stat: nodes=1780
%%%mzn-stat: failures=875
%%%mzn-stat: restarts=0
%%%mzn-stat: peakDepth=25
%%%mzn-stat-end
Finished in 130msec
Running symmetry.mzn with ins-10.dzn
17 17
12
3 3 7 0
3 4 14 0
3 5 4 0
3 6 14 11
3 7 14 4
3 8 7 9
3 9 4 5
4 3 10 0
4 8 10 9
4 14 0 0
7 3 0 14
7 6 7 3
----------
==========
%%%mzn-stat: initTime=0.000754
%%%mzn-stat: solveTime=0.034224
%%%mzn-stat: solutions=5
%%%mzn-stat: variables=50
%%%mzn-stat: propagators=31
%%%mzn-stat: propagations=49192
%%%mzn-stat: nodes=7051
%%%mzn-stat: failures=3512
%%%mzn-stat: restarts=0
%%%mzn-stat: peakDepth=31
%%%mzn-stat-end
Finished in 152msec
Running symmetry.mzn with ins-11.dzn
18 19
16
3 3 12 0
3 4 3 0
3 5 9 0
3 6 0 0
3 7 15 12
3 8 0 6
3 10 3 4
3 11 6 0
4 3 14 3
4 4 10 9
4 5 6 11
4 6 14 6
5 3 5 16
5 4 9 5
5 5 0 14
5 6 10 13
----------
%%%mzn-stat: initTime=0.000847
%%%mzn-stat: solveTime=299.881
%%%mzn-stat: solutions=5
%%%mzn-stat: variables=66
%%%mzn-stat: propagators=39
%%%mzn-stat: propagations=388469500
%%%mzn-stat: nodes=49936013
%%%mzn-stat: failures=24967986
%%%mzn-stat: restarts=0
%%%mzn-stat: peakDepth=47
%%%mzn-stat-end
Finished in 5m 0s
Running symmetry.mzn with ins-12.dzn
19 19
14
3 3 0 0
3 4 3 0
3 5 3 14
3 6 16 13
3 7 0 12
3 8 13 11
3 9 0 3
3 10 3 4
3 11 13 0
3 13 16 0
3 19 6 0
4 5 9 14
4 6 9 8
4 8 9 0
----------
==========
%%%mzn-stat: initTime=0.001199
%%%mzn-stat: solveTime=4.96112
%%%mzn-stat: solutions=5
%%%mzn-stat: variables=58
%%%mzn-stat: propagators=34
%%%mzn-stat: propagations=7293460
%%%mzn-stat: nodes=1022220
%%%mzn-stat: failures=511098
%%%mzn-stat: restarts=0
%%%mzn-stat: peakDepth=34
%%%mzn-stat-end
Finished in 5s 86msec
Running symmetry.mzn with ins-13.dzn
20 20
14
3 3 17 0
3 4 8 0
3 5 11 0
3 6 8 14
3 7 11 13
3 8 11 5
3 9 14 11
3 10 8 4
3 11 14 0
3 17 17 3
4 3 0 17
4 9 4 11
4 11 4 0
4 17 0 0
----------
==========
%%%mzn-stat: initTime=0.000885
%%%mzn-stat: solveTime=0.159256
%%%mzn-stat: solutions=6
%%%mzn-stat: variables=58
%%%mzn-stat: propagators=35
%%%mzn-stat: propagations=224238
%%%mzn-stat: nodes=33508
%%%mzn-stat: failures=16735
%%%mzn-stat: restarts=0
%%%mzn-stat: peakDepth=35
%%%mzn-stat-end
Finished in 282msec
Running symmetry.mzn with ins-14.dzn
21 21
15
3 3 18 0
3 4 15 0
3 5 9 0
3 6 9 15
3 7 12 14
3 8 15 13
3 9 15 4
3 10 9 5
3 14 12 0
3 18 18 3
4 4 5 17
4 6 5 11
4 11 5 0
5 6 0 15
5 15 0 0
----------
==========
%%%mzn-stat: initTime=0.001006
%%%mzn-stat: solveTime=1.99626
%%%mzn-stat: solutions=6
%%%mzn-stat: variables=62
%%%mzn-stat: propagators=37
%%%mzn-stat: propagations=2711068
%%%mzn-stat: nodes=380141
%%%mzn-stat: failures=190053
%%%mzn-stat: restarts=0
%%%mzn-stat: peakDepth=51
%%%mzn-stat-end
Finished in 2s 116msec
Running symmetry.mzn with ins-15.dzn
22 22
16
3 3 16 0
3 4 10 0
3 5 7 0
3 6 4 0
3 7 10 15
3 8 13 14
3 9 16 13
3 10 16 3
3 11 10 4
3 12 4 6
3 13 7 5
3 14 13 0
3 22 19 0
4 3 0 19
4 19 0 0
6 4 4 18
----------
==========
%%%mzn-stat: initTime=0.000855
%%%mzn-stat: solveTime=1.20645
%%%mzn-stat: solutions=11
%%%mzn-stat: variables=66
%%%mzn-stat: propagators=39
%%%mzn-stat: propagations=1462964
%%%mzn-stat: nodes=209096
%%%mzn-stat: failures=104508
%%%mzn-stat: restarts=0
%%%mzn-stat: peakDepth=57
%%%mzn-stat-end
Finished in 1s 329msec
Running symmetry.mzn with ins-16.dzn
23 24
19
3 3 0 0
3 4 17 0
3 5 7 0
3 6 14 0
3 7 11 0
3 8 17 16
3 9 20 14
3 10 11 7
3 11 14 6
3 12 17 4
3 14 20 0
3 20 4 0
4 3 4 20
4 4 8 20
4 6 13 17
4 10 0 14
4 11 0 3
4 12 7 5
6 3 7 17
----------
%%%mzn-stat: initTime=0.000911
%%%mzn-stat: solveTime=299.875
%%%mzn-stat: solutions=6
%%%mzn-stat: variables=78
%%%mzn-stat: propagators=45
%%%mzn-stat: propagations=289896463
%%%mzn-stat: nodes=43821808
%%%mzn-stat: failures=21910876
%%%mzn-stat: restarts=0
%%%mzn-stat: peakDepth=77
%%%mzn-stat-end
Finished in 5m 0s
Running symmetry.mzn with ins-17.dzn
24 24
18
3 3 0 0
3 4 3 0
3 5 6 0
3 6 14 0
3 7 0 17
3 8 3 16
3 9 6 15
3 10 6 5
3 12 3 4
3 14 0 3
3 18 14 6
3 24 17 0
4 3 20 21
4 4 20 17
4 5 20 12
4 12 20 0
5 8 9 16
5 16 9 0
----------
==========
%%%mzn-stat: initTime=0.00093
%%%mzn-stat: solveTime=73.5827
%%%mzn-stat: solutions=10
%%%mzn-stat: variables=74
%%%mzn-stat: propagators=43
%%%mzn-stat: propagations=82094975
%%%mzn-stat: nodes=12496618
%%%mzn-stat: failures=6248278
%%%mzn-stat: restarts=0
%%%mzn-stat: peakDepth=60
%%%mzn-stat-end
Finished in 1m 13s
Running symmetry.mzn with ins-18.dzn
25 25
19
3 3 0 0
3 4 3 0
3 5 12 0
3 6 22 0
3 7 19 0
3 8 9 0
3 9 0 16
3 10 3 15
3 11 3 4
3 13 0 3
3 14 9 8
3 17 12 5
3 18 19 7
3 19 22 6
3 25 6 0
4 5 15 20
4 7 15 13
4 13 15 0
6 3 9 22
----------
==========
%%%mzn-stat: initTime=0.000967
%%%mzn-stat: solveTime=174.127
%%%mzn-stat: solutions=8
%%%mzn-stat: variables=78
%%%mzn-stat: propagators=44
%%%mzn-stat: propagations=182943547
%%%mzn-stat: nodes=25908191
%%%mzn-stat: failures=12954075
%%%mzn-stat: restarts=0
%%%mzn-stat: peakDepth=84
%%%mzn-stat-end
Finished in 2m 54s
Running symmetry.mzn with ins-19.dzn
26 27
22
3 3 18 0
3 4 23 0
3 5 3 0
3 6 15 0
3 7 6 0
3 8 12 0
3 9 9 0
3 10 20 3
3 11 23 4
3 12 23 15
3 14 20 13
3 15 9 9
3 16 6 7
3 17 3 5
3 19 0 0
4 3 8 24
4 4 4 23
4 5 0 22
4 7 16 20
4 8 12 8
4 11 12 16
4 14 16 6
----------
%%%mzn-stat: initTime=0.002496
%%%mzn-stat: solveTime=299.877
%%%mzn-stat: solutions=5
%%%mzn-stat: variables=90
%%%mzn-stat: propagators=51
%%%mzn-stat: propagations=311251731
%%%mzn-stat: nodes=37695486
%%%mzn-stat: failures=18847719
%%%mzn-stat: restarts=0
%%%mzn-stat: peakDepth=83
%%%mzn-stat-end
Finished in 4m 59s
Running symmetry.mzn with ins-20.dzn
27 28
21
3 3 4 0
3 4 7 0
3 5 14 0
3 6 17 0
3 7 21 0
3 8 24 0
3 9 11 0
3 10 4 3
3 11 8 10
3 12 11 9
3 19 14 5
3 20 24 8
3 21 21 7
4 3 16 25
4 4 12 24
4 6 7 4
4 7 8 21
4 8 0 20
4 14 4 13
4 19 17 6
4 20 0 0
----------
%%%mzn-stat: initTime=0.001655
%%%mzn-stat: solveTime=299.857
%%%mzn-stat: solutions=6
%%%mzn-stat: variables=86
%%%mzn-stat: propagators=49
%%%mzn-stat: propagations=251171400
%%%mzn-stat: nodes=39146913
%%%mzn-stat: failures=19573423
%%%mzn-stat: restarts=0
%%%mzn-stat: peakDepth=74
%%%mzn-stat-end
Finished in 5m 0s
Running symmetry.mzn with ins-21.dzn
28 29
22
3 3 13 0
3 4 17 0
3 5 25 0
3 6 4 0
3 7 22 0
3 8 7 0
3 9 10 0
3 10 15 19
3 11 10 9
3 16 7 8
3 17 4 6
3 21 22 7
3 23 25 5
4 3 13 3
4 4 18 4
4 5 5 24
4 8 18 8
4 13 18 16
4 23 0 0
5 6 0 23
5 9 10 20
5 13 13 6
----------
%%%mzn-stat: initTime=0.001012
%%%mzn-stat: solveTime=299.876
%%%mzn-stat: solutions=8
%%%mzn-stat: variables=90
%%%mzn-stat: propagators=51
%%%mzn-stat: propagations=221880344
%%%mzn-stat: nodes=35363343
%%%mzn-stat: failures=17681617
%%%mzn-stat: restarts=0
%%%mzn-stat: peakDepth=73
%%%mzn-stat-end
Finished in 5m 0s
Running symmetry.mzn with ins-22.dzn
29 32
24
3 3 8 0
3 4 5 0
3 5 20 0
3 6 23 0
3 7 26 0
3 8 14 0
3 9 17 0
3 10 12 19
3 11 0 17
3 15 3 17
3 18 6 14
3 20 9 10
4 3 9 3
4 4 5 4
4 5 25 7
4 6 5 8
4 7 16 9
4 9 12 10
4 15 16 16
4 18 20 14
4 20 25 12
5 4 9 6
5 8 20 6
5 17 0 0
----------
%%%mzn-stat: initTime=0.001113
%%%mzn-stat: solveTime=299.877
%%%mzn-stat: solutions=5
%%%mzn-stat: variables=98
%%%mzn-stat: propagators=55
%%%mzn-stat: propagations=202670878
%%%mzn-stat: nodes=37156685
%%%mzn-stat: failures=18578312
%%%mzn-stat: restarts=0
%%%mzn-stat: peakDepth=86
%%%mzn-stat-end
Finished in 5m 0s
Running symmetry.mzn with ins-23.dzn
30 31
20
3 3 11 0
3 4 14 0
3 5 23 0
3 6 27 0
3 7 17 0
3 8 20 0
3 9 11 3
3 10 14 4
3 11 24 5
3 13 14 14
3 14 24 16
3 16 11 12
3 19 17 7
3 25 27 6
4 3 11 28
4 4 15 27
4 6 20 17
4 8 20 23
4 9 20 8
11 30 0 0
----------
%%%mzn-stat: initTime=0.001018
%%%mzn-stat: solveTime=299.87
%%%mzn-stat: solutions=5
%%%mzn-stat: variables=82
%%%mzn-stat: propagators=46
%%%mzn-stat: propagations=307505796
%%%mzn-stat: nodes=37305329
%%%mzn-stat: failures=18652639
%%%mzn-stat: restarts=0
%%%mzn-stat: peakDepth=65
%%%mzn-stat-end
Finished in 5m 0s
Running symmetry.mzn with ins-24.dzn
31 32
19
3 3 22 0
3 4 12 0
3 5 25 0
3 6 16 0
3 7 19 0
3 8 18 24
3 9 19 7
3 10 16 6
3 11 12 17
3 12 15 17
3 13 25 19
3 14 25 5
3 22 22 3
3 31 28 0
4 3 12 29
4 7 21 25
4 8 18 16
4 13 12 4
12 31 0 0
----------
%%%mzn-stat: initTime=0.001336
%%%mzn-stat: solveTime=299.88
%%%mzn-stat: solutions=10
%%%mzn-stat: variables=78
%%%mzn-stat: propagators=44
%%%mzn-stat: propagations=301358845
%%%mzn-stat: nodes=41409081
%%%mzn-stat: failures=20704496
%%%mzn-stat: restarts=0
%%%mzn-stat: peakDepth=57
%%%mzn-stat-end
Finished in 5m 0s
Running symmetry.mzn with ins-25.dzn
32 33
27
3 3 0 0
3 4 15 0
3 5 29 0
3 6 26 0
3 7 12 0
3 8 9 0
3 9 6 0
3 10 23 0
3 11 20 0
3 12 0 3
3 13 17 4
3 14 0 15
3 15 17 17
3 18 6 9
3 22 20 11
3 23 23 10
3 24 26 6
3 25 29 5
3 27 3 0
4 3 26 30
4 4 0 29
4 5 13 28
4 6 4 27
4 7 9 26
4 10 13 18
4 11 13 7
4 18 9 8
----------
%%%mzn-stat: initTime=0.001126
%%%mzn-stat: solveTime=299.877
%%%mzn-stat: solutions=5
%%%mzn-stat: variables=110
%%%mzn-stat: propagators=61
%%%mzn-stat: propagations=229980661
%%%mzn-stat: nodes=27627207
%%%mzn-stat: failures=13813565
%%%mzn-stat: restarts=0
%%%mzn-stat: peakDepth=100
%%%mzn-stat-end
Finished in 4m 59s
Running symmetry.mzn with ins-26.dzn
33 35
23
3 3 25 0
3 4 7 0
3 5 22 0
3 6 19 0
3 7 16 0
3 8 10 0
3 9 13 0
3 10 13 15
3 13 24 22
3 14 17 7
3 15 10 8
3 17 24 5
3 24 7 4
3 30 27 3
3 33 30 0
4 3 7 32
4 4 7 28
4 6 13 9
4 10 11 25
4 12 20 23
4 14 16 21
4 17 20 6
7 33 0 0
----------
%%%mzn-stat: initTime=0.001192
%%%mzn-stat: solveTime=299.88
%%%mzn-stat: solutions=8
%%%mzn-stat: variables=94
%%%mzn-stat: propagators=52
%%%mzn-stat: propagations=229264464
%%%mzn-stat: nodes=29047227
%%%mzn-stat: failures=14523561
%%%mzn-stat: restarts=0
%%%mzn-stat: peakDepth=80
%%%mzn-stat-end
Finished in 5m 0s
Running symmetry.mzn with ins-27.dzn
34 36
21
3 3 12 0
3 4 28 0
3 5 25 0
3 6 22 0
3 7 15 0
3 8 19 0
3 9 25 26
3 10 28 26
3 11 15 21
3 12 19 8
3 13 18 21
3 14 22 6
3 21 25 5
3 22 28 4
3 25 12 3
3 34 31 0
4 4 12 32
4 5 21 31
4 11 21 20
4 14 15 7
12 34 0 0
----------
%%%mzn-stat: initTime=0.001205
%%%mzn-stat: solveTime=299.879
%%%mzn-stat: solutions=10
%%%mzn-stat: variables=86
%%%mzn-stat: propagators=48
%%%mzn-stat: propagations=251940729
%%%mzn-stat: nodes=34926248
%%%mzn-stat: failures=17463073
%%%mzn-stat: restarts=0
%%%mzn-stat: peakDepth=69
%%%mzn-stat-end
Finished in 5m 0s
Running symmetry.mzn with ins-28.dzn
35 37
22
3 3 14 0
3 4 18 0
3 5 22 0
3 6 26 0
3 7 29 0
3 8 32 0
3 9 18 28
3 10 25 26
3 12 25 14
3 19 22 10
3 22 28 14
4 3 14 3
4 4 18 4
4 5 22 5
4 6 14 6
4 7 26 7
4 8 21 29
4 12 31 25
4 17 31 8
4 20 18 8
4 23 14 12
14 35 0 0
----------
%%%mzn-stat: initTime=0.001039
%%%mzn-stat: solveTime=299.877
%%%mzn-stat: solutions=5
%%%mzn-stat: variables=90
%%%mzn-stat: propagators=50
%%%mzn-stat: propagations=214642266
%%%mzn-stat: nodes=33770238
%%%mzn-stat: failures=16885093
%%%mzn-stat: restarts=0
%%%mzn-stat: peakDepth=78
%%%mzn-stat-end
Finished in 5m 0s
Running symmetry.mzn with ins-29.dzn
36 38
23
3 3 27 0
3 4 12 0
3 5 15 0
3 6 18 0
3 7 21 0
3 8 24 0
3 9 30 0
3 10 16 28
3 11 27 27
3 12 21 22
3 14 30 24
3 15 30 9
3 16 24 22
3 24 27 3
3 36 33 0
4 3 19 34
4 11 12 27
4 22 12 5
5 3 16 25
5 4 16 21
5 14 21 8
5 15 16 6
12 36 0 0
----------
%%%mzn-stat: initTime=0.001242
%%%mzn-stat: solveTime=299.877
%%%mzn-stat: solutions=12
%%%mzn-stat: variables=94
%%%mzn-stat: propagators=52
%%%mzn-stat: propagations=222703423
%%%mzn-stat: nodes=34265231
%%%mzn-stat: failures=17132544
%%%mzn-stat: restarts=0
%%%mzn-stat: peakDepth=71
%%%mzn-stat-end
Finished in 4m 59s
Running symmetry.mzn with ins-30.dzn
37 40
27
3 3 15 0
3 4 22 0
3 5 12 0
3 6 25 0
3 7 28 0
3 8 31 0
3 9 34 0
3 11 26 29
3 12 29 28
3 13 34 27
3 14 18 22
3 17 15 22
3 18 34 9
3 21 12 16
4 3 18 0
4 4 18 36
4 5 22 32
4 6 16 6
4 10 12 6
4 22 25 7
4 24 21 8
5 3 15 3
5 4 20 4
5 6 29 8
5 10 16 12
5 14 29 14
12 37 0 0
----------
%%%mzn-stat: initTime=0.001443
%%%mzn-stat: solveTime=299.878
%%%mzn-stat: solutions=7
%%%mzn-stat: variables=110
%%%mzn-stat: propagators=60
%%%mzn-stat: propagations=159271354
%%%mzn-stat: nodes=25572438
%%%mzn-stat: failures=12786181
%%%mzn-stat: restarts=0
%%%mzn-stat: peakDepth=75
%%%mzn-stat-end
Finished in 5m 0s
